out/production/GUI/SacADos.lp
\ENCODING=ISO-8859-1
\Problem name: SacADos

Maximize
 obj: 100 x(1) + 150 x(2) + 15 x(3) + 160 x(4) + 160 x(5)
Subject To
 c1: 20 x(1) + 50 x(2) + 80 x(3) + 10 x(4) + 10 x(5) <= 100
Bounds
 0 <= x(1) <= 1
 0 <= x(2) <= 1
 0 <= x(3) <= 1
 0 <= x(4) <= 1
 0 <= x(5) <= 1
Binaries
 x(1)  x(2)  x(3)  x(4)  x(5) 
End
