out/production/GUI/SacADos.mps
* ENCODING=ISO-8859-1
NAME          SacADos
ROWS
 N  obj     
 L  c1      
COLUMNS
    MARK0000  'MARKER'                 'INTORG'
    x(1)      obj                            -3
    x(1)      c1                             20
    x(2)      obj                           -31
    x(2)      c1                              3
    x(3)      obj                            -3
    x(3)      c1                              5
    x(4)      obj                            -3
    x(4)      c1                              5
    x(5)      obj                            -3
    x(5)      c1                              5
    MARK0001  'MARKER'                 'INTEND'
RHS
    rhs       c1                             10
BOUNDS
 UP bnd       x(1)                            1
 UP bnd       x(2)                            1
 UP bnd       x(3)                            1
 UP bnd       x(4)                            1
 UP bnd       x(5)                            1
ENDATA
